CMPL model generation - running

CMPL version: 1.11.0
Authors: Thomas Schleiff, Mike Steglich
Distributed under the GPLv3 

create model instance ...
write model instance ...
CMPL model generation - finished

Solver - running


Welcome to IBM(R) ILOG(R) CPLEX(R) Interactive Optimizer 12.7.1.0
  with Simplex, Mixed Integer & Barrier Optimizers
5725-A06 5725-A29 5724-Y48 5724-Y49 5724-Y54 5724-Y55 5655-Y21
Copyright IBM Corp. 1988, 2017.  All Rights Reserved.

Type 'help' for a list of available commands.
Type 'help' followed by a command name for more
information on commands.

CPLEX> Specified objective sense: MINIMIZE
Selected objective  name:  line[1]
Selected RHS        name:  RHS
Selected bound      name:  BOUND
Problem '/tmp/cmpl.T24813.mps' read.
Read time = 0.06 sec. (10.16 ticks)
CPLEX> CPXPARAM_Read_APIEncoding                        "UTF-8"
Tried aggregator 3 times.
MIP Presolve eliminated 23602 rows and 36780 columns.
MIP Presolve modified 425 coefficients.
Aggregator did 1136 substitutions.
Reduced MIP has 3184 rows, 4539 columns, and 13431 nonzeros.
Reduced MIP has 4329 binaries, 0 generals, 0 SOSs, and 0 indicators.
Presolve time = 0.08 sec. (51.21 ticks)
Found incumbent of value 3474.662736 after 0.17 sec. (96.13 ticks)
Probing time = 0.01 sec. (2.87 ticks)
Tried aggregator 1 time.
MIP Presolve eliminated 0 rows and 4 columns.
Reduced MIP has 3184 rows, 4535 columns, and 13423 nonzeros.
Reduced MIP has 4535 binaries, 0 generals, 0 SOSs, and 0 indicators.
Presolve time = 0.02 sec. (11.02 ticks)
Probing fixed 38 vars, tightened 0 bounds.
Probing time = 0.01 sec. (6.24 ticks)
Clique table members: 8532.
MIP emphasis: balance optimality and feasibility.
MIP search method: dynamic search.
Parallel mode: none, using 1 thread.
Root relaxation solution time = 0.02 sec. (13.60 ticks)

        Nodes                                         Cuts/
   Node  Left     Objective  IInf  Best Integer    Best Bound    ItCnt     Gap

*     0+    0                         3474.6627       -1.9843           100.06%
*     0     0      integral     0      962.7366      962.7366      724    0.00%
Elapsed time = 0.25 sec. (139.58 ticks, tree = 0.00 MB, solutions = 2)

Root node processing (before b&c):
  Real time             =    0.26 sec. (141.17 ticks)
Sequential b&c:
  Real time             =    0.00 sec. (0.00 ticks)
                          ------------
Total (root+branch&cut) =    0.26 sec. (141.17 ticks)

Solution pool: 2 solutions saved.

MIP - Integer optimal solution:  Objective =  9.6273656100e+02
Solution time =    0.26 sec.  Iterations = 724  Nodes = 0
Deterministic time = 141.29 ticks  (553.51 ticks/sec)

CPLEX> Incumbent solution written to file '/tmp/cmpl.T24813.gsol'.
CPLEX> 
CMPL: Time used for model generation: 1 seconds
CMPL: Time used for solving the model: 1 seconds


Solution written to ASCII file: results/output_generated_conf_0.9/2017-07-03-5/fair-nonlinear.sol

Solver - finished
